============================[ Problem Statistics ]=============================|                                                                             ||  Number of variables:          4242                                         ||  Number of clauses:           10137                                         ||  Parse time:                   0.53 s                                       ||                                                                             |============================[ Search Statistics ]==============================| Conflicts |          ORIGINAL         |          LEARNT          | Progress ||           |    Vars  Clauses Literals |    Limit  Clauses Lit/Cl |          |===============================================================================|       100 |    1591     6342   837523 |     2325      100     53 | 62.501 % ||       250 |    1591     6342   837523 |     2557      250     75 | 62.495 % |===============================================================================restarts              : 3conflicts             : 293            (369 /sec)decisions             : 557            (0.00 % random) (701 /sec)propagations          : 11837          (14889 /sec)conflict literals     : 22992          (94.76 % deleted)CPU time              : 0.795 sSATISFIABLE